% ----DATA VARIABLES----

t=12;%number of attributes
k=8;%max length of the support set
n=17;%number of positive instances
m=17;%number of negative instances
c=3;%number of atMostOne Constraints

% ----OMEGAS----

omegap= [| 1, 0, 0, 0, 1, 0, 0, 0, 1, 1, 0, 0|
 0, 1, 0, 0, 1, 0, 0, 0, 0, 0, 0, 1|
 0, 0, 0, 1, 1, 1, 1, 0, 0, 0, 1, 0|
 1, 0, 1, 1, 0, 0, 0, 1, 0, 0, 0, 1|
 1, 0, 0, 0, 1, 0, 1, 1, 1, 1, 1, 0|
 1, 1, 0, 0, 0, 1, 0, 1, 0, 1, 0, 1|
 1, 1, 1, 1, 0, 0, 1, 0, 0, 0, 1, 1|
 1, 0, 1, 1, 0, 0, 1, 1, 1, 1, 0, 1|
 1, 1, 0, 1, 0, 1, 0, 0, 0, 0, 0, 1|
 1, 1, 0, 0, 1, 0, 1, 1, 1, 1, 0, 1|
 1, 1, 0, 0, 1, 0, 0, 1, 1, 0, 1, 0|
 1, 0, 0, 1, 1, 0, 0, 0, 1, 1, 1, 0|
 1, 0, 1, 1, 1, 0, 1, 1, 1, 1, 1, 0|
 0, 1, 0, 1, 1, 0, 1, 0, 0, 0, 1, 0|
 0, 1, 1, 0, 1, 0, 0, 0, 1, 1, 1, 1|
 0, 0, 1, 0, 0, 0, 0, 1, 1, 1, 1, 0|
 0, 0, 0, 0, 1, 1, 0, 0, 1, 0, 1, 0|];

omegan= [| 0, 1, 1, 0, 0, 1, 1, 1, 1, 0, 0, 0|
 1, 1, 0, 0, 0, 1, 1, 1, 1, 0, 1, 0|
 1, 0, 0, 1, 0, 0, 0, 1, 0, 1, 1, 0|
 0, 0, 1, 1, 1, 0, 1, 1, 1, 1, 0, 1|
 1, 0, 0, 0, 1, 1, 1, 1, 1, 1, 1, 1|
 1, 1, 1, 0, 1, 1, 1, 1, 0, 1, 1, 0|
 1, 1, 1, 0, 0, 1, 1, 1, 0, 0, 1, 1|
 0, 0, 1, 1, 0, 0, 0, 1, 0, 0, 1, 0|
 0, 0, 0, 1, 1, 1, 1, 1, 0, 1, 1, 1|
 0, 0, 1, 1, 0, 0, 0, 0, 0, 0, 0, 0|
 1, 1, 1, 1, 1, 1, 0, 1, 1, 0, 1, 0|
 0, 0, 0, 1, 1, 1, 1, 0, 1, 1, 1, 1|
 0, 1, 0, 0, 1, 0, 1, 1, 1, 0, 0, 1|
 1, 0, 1, 0, 0, 1, 1, 1, 0, 0, 0, 0|
 1, 0, 0, 1, 0, 1, 0, 1, 0, 0, 0, 0|
 1, 1, 0, 1, 0, 1, 1, 0, 0, 0, 0, 1|
 1, 0, 1, 0, 0, 1, 0, 1, 0, 0, 0, 0|];

% ----CONSTRAINS----

atMostOne=[{1, 8, 2}, {1}, {7, 5, 8, 6}];